Gurobi 12.0.1:   lim:time = 28800
  mip:bestbound = 1
Set parameter LogToConsole to value 1
  tech:outlev = 1
Set parameter InfUnbdInfo to value 1
Gurobi Optimizer version 12.0.1 build v12.0.1rc0 (win64 - Windows 11.0 (22631.2))

CPU model: Intel(R) Core(TM) i7-10700 CPU @ 2.90GHz, instruction set [SSE2|AVX|AVX2]
Thread count: 8 physical cores, 16 logical processors, using up to 16 threads

Non-default parameters:
TimeLimit  28800
InfUnbdInfo  1

Optimize a model with 211199 rows, 79846 columns and 2756465 nonzeros
Model fingerprint: 0x22de09d0
Model has 21630 quadratic objective terms
Model has 31630 quadratic constraints
Model has 100 simple general constraints
  100 MAX
Variable types: 1744 continuous, 78102 integer (0 binary)
Coefficient statistics:
  Matrix range     [1e+00, 4e+03]
  QMatrix range    [1e+00, 1e+02]
  QLMatrix range   [1e+00, 3e+03]
  Objective range  [1e+01, 4e+03]
  QObjective range [2e+02, 5e+03]
  Bounds range     [1e+00, 3e+03]
  RHS range        [1e+00, 6e+03]
  QRHS range       [1e+02, 3e+03]
Presolve removed 48274 rows and 11934 columns (presolve time = 5s)...
Presolve removed 50299 rows and 12034 columns (presolve time = 10s)...
Presolve removed 28581 rows and 12093 columns
Presolve time: 14.22s
Presolved: 4006328 rows, 2882773 columns, 14741785 nonzeros
Presolved model has 210 SOS constraint(s)
Variable types: 1796251 continuous, 1086522 integer (1086317 binary)
Deterministic concurrent LP optimizer: primal simplex, dual simplex, and barrier
Showing barrier log only...

Root barrier log...

Elapsed ordering time = 6s
Ordering time: 9.53s

Barrier performed 0 iterations in 358.08 seconds (415.58 work units)
Barrier solve interrupted - model solved by another algorithm

Concurrent spin time: 22.82s (can be avoided by choosing Method=3)

Solved with dual simplex

Root simplex log...

Iteration    Objective       Primal Inf.    Dual Inf.      Time
   12029    5.9102632e+03   0.000000e+00   0.000000e+00    360s

Use crossover to convert LP symmetric solution to basic solution...

Root crossover log...

    6728 DPushes remaining with DInf 0.0000000e+00               362s
      67 DPushes remaining with DInf 0.0000000e+00               369s
       0 DPushes remaining with DInf 0.0000000e+00               369s

     302 PPushes remaining with PInf 0.0000000e+00               369s
       0 PPushes remaining with PInf 0.0000000e+00               370s

  Push phase complete: Pinf 0.0000000e+00, Dinf 1.5175361e-14    370s


Root simplex log...

Iteration    Objective       Primal Inf.    Dual Inf.      Time
   18637    5.9102632e+03   0.000000e+00   0.000000e+00    370s

Root relaxation: objective 5.910263e+03, 18637 iterations, 61.09 seconds (48.42 work units)
Total elapsed time = 370.76s (DegenMoves)
Total elapsed time = 376.24s (DegenMoves)
Total elapsed time = 380.35s (DegenMoves)
Total elapsed time = 387.16s (DegenMoves)

    Nodes    |    Current Node    |     Objective Bounds      |     Work
 Expl Unexpl |  Obj  Depth IntInf | Incumbent    BestBd   Gap | It/Node Time

     0     0 5910.26323    0   64          - 5910.26323      -     -  390s
     0     0 5919.98995    0  100          - 5919.98995      -     -  448s
     0     0 5919.98995    0  102          - 5919.98995      -     -  467s
H    0     0                    5.602349e+07 5919.98995   100%     -  478s
     0     0 5920.18922    0  110 5.6023e+07 5920.18922   100%     -  487s
H    0     0                    184283.36994 5920.18922  96.8%     -  491s
     0     0 5920.18922    0  106 184283.370 5920.18922  96.8%     -  500s
     0     0 5921.51031    0  146 184283.370 5921.51031  96.8%     -  519s
     0     0 5921.78937    0  141 184283.370 5921.78937  96.8%     -  555s
     0     0 5922.48005    0  135 184283.370 5922.48005  96.8%     -  571s
     0     0 5923.13865    0  126 184283.370 5923.13865  96.8%     -  582s
     0     0 5923.13865    0  125 184283.370 5923.13865  96.8%     -  779s
     0     0 5923.13865    0  119 184283.370 5923.13865  96.8%     -  792s
     0     0 5923.13865    0   86 184283.370 5923.13865  96.8%     -  816s
     0     0 5923.13865    0  107 184283.370 5923.13865  96.8%     -  829s
     0     0 5923.13865    0  120 184283.370 5923.13865  96.8%     -  835s
     0     0 5923.13865    0  123 184283.370 5923.13865  96.8%     -  845s
     0     0 5923.13865    0  122 184283.370 5923.13865  96.8%     -  864s
     0     0 5923.13865    0  128 184283.370 5923.13865  96.8%     -  871s
     0     0 5923.60216    0  132 184283.370 5923.60216  96.8%     -  885s
     0     0 5923.60216    0   93 184283.370 5923.60216  96.8%     -  907s
     0     0 5923.60216    0  109 184283.370 5923.60216  96.8%     -  921s
     0     0 5923.60216    0   92 184283.370 5923.60216  96.8%     -  947s
     0     0 5923.60216    0   91 184283.370 5923.60216  96.8%     -  972s
H    0     0                    183724.37394 5924.51775  96.8%     -  991s
H    0     0                    36834.129000 5924.51775  83.9%     -  991s
H    0     0                    32739.231000 5924.51775  81.9%     -  991s
H    0     0                    31497.128000 5924.51775  81.2%     -  992s
H    0     0                    31476.089000 5924.51775  81.2%     -  992s
     0     2 5943.66053    0   84 31476.0890 5943.66053  81.1%     - 1038s
     1     4 5943.66053    1   88 31476.0890 5943.66053  81.1%   483 1046s
     3     8 5943.66053    2   96 31476.0890 5943.66053  81.1%   475 1058s
     7    16 6001.19939    3  143 31476.0890 5943.66053  81.1%   590 1082s
    15    24 6017.44662    4  110 31476.0890 5943.66053  81.1%   737 1102s
    23    38 6017.46570    5  122 31476.0890 5943.66053  81.1%   758 1126s

Cutting planes:
  Learned: 15
  Gomory: 9
  Cover: 2
  Implied bound: 57
  MIR: 28
  Zero half: 4
  RLT: 20
  Relax-and-lift: 537
H   37    27                    30660.040000 5943.66053  80.6%   875 1151s
H   38    21                    30609.890000 5943.66053  80.6%   853 1151s

Explored 37 nodes (66840 simplex iterations) in 1152.28 seconds (1091.92 work units)
Thread count was 16 (of 16 available processors)

Solution count 1: 31476.1 

Solve interrupted (error code 10001)
Best objective 3.147608900000e+04, best bound 5.943660534754e+03, gap 81.1169%

AMPL MP initial flat model has 79648 variables (205 integer, 77897 binary);
Objectives: 1 quadratic; 
Constraints:  211199 linear; 31630 quadratic;
Algebraic expressions:  100 max;

AMPL MP final model has 79846 variables (205 integer, 77897 binary);
Objectives: 1 quadratic; 
Constraints:  211199 linear; 31630 quadratic;
Algebraic expressions:  100 max;


Gurobi 12.0.1: Call failed: 'GRBoptimize(model())' with code 10001,
Gurobi message: Out of memory
Error at _cmdno 6 executing "printf" command
(file C:\Users\user\python\shan-ampl-runner\ME\runfiles\data_100\C201-100.run, line 36, offset 752):

	can't open "ampl_outputs/data_100/C201-100.txt"
